\ENCODING=ISO-8859-1
\Problem name: IloCplex

Minimize
 obj: x1 + x2 + x3 + x4 + x5 + x6 + x7 + x8 + x9 + x10 + x11 + x12 + x13 + x14
      + x15 + x16 + x17 + x18 + x19 + x20 + x21 + x22 + x23 + x24 + x25 + x26
      + x27 + x28 + x29 + x30 + x31 + x32 + x33 + x34 + x35 + x36 + x37 + x38
      + x39 + 1000000000000 x40 + x41 + x42 + x43 + x44 + x45 + x46
      + 1000000000000 x47 + x48 + x49 + x50 + x51 + x52 + x53 + x54 + x55 + x56
      + x57 + x58 + x59 + x60 + x61 + x62 + x63 + x64 + x65 + x66 + x67 + x68
      + x69 + x70 + x71 + x72 + x73 + x74 + x75 + x76 + x77 + x78 + x79 + x80
      + x81 + x82 + x83 + x84 + x85 + x86 + x87 + x88 + x89 + x90 + x91 + x92
      + x93 + x94 + x95 + x96 + x97 + x98 + x99 + x100 + x101 + x102 + x103
      + x104 + x105 + x106 + x107 + x108 + x109 + x110 + x111 + x112 + x113
      + x114 + x115 + x116 + x117 + x118 + x119 + x120 + x121 + x122 + x123
      + x124 + x125 + x126 + x127 + x128 + x129 + x130 + x131 + x132 + x133
      + x134 + x135 + x136 + x137 + x138 + x139 + x140 + x141 + x142 + x143
      + x144 + x145 + x146 + x147 + x148 + x149 + x150 + x151 + x152 + x153
      + x154 + x155 + x156 + x157 + x158 + x159 + x160 + x161 + x162 + x163
      + x164 + x165 + x166 + x167 + x168 + x169 + x170 + x171 + x172 + x173
      + x174 + x175 + x176 + x177 + x178 + x179 + x180 + x181 + x182 + x183
      + x184 + x185 + x186 + x187 + x188 + x189 + x190 + x191 + x192 + x193
      + x194 + x195 + x196 + x197 + x198 + x199 + x200 + x201 + x202 + x203
      + x204 + x205 + x206 + x207 + x208 + x209 + x210 + x211 + x212 + x213
      + x214 + x215 + x216 + x217 + x218 + x219 + x220 + x221 + x222 + x223
      + x224 + x225 + x226 + x227 + x228 + x229 + x230 + x231 + x232 + x233
      + x234 + x235 + x236 + x237 + x238 + x239 + x240 + x241
Subject To
 c1:  x1 + x209  = 1
 c2:  x2 + x197 + x208  = 1
 c3:  x3 + x191 + x194 + x196  = 1
 c4:  x4 + x183 + x189 + x211 + x218  = 1
 c5:  x5 + x169 + x171 + x184  = 1
 c6:  x6 + x173 + x178 + x190 + x207 + x216 + x221  = 1
 c7:  x7 + x160 + x161 + x164 + x168 + x224  = 1
 c8:  x8 + x158 + x159 + x214 + x237 + x241  = 1
 c9:  x9 + x155 + x156 + x174 + x220 + x235 + x236  = 1
 c10: x10 + x151 + x154 + x215 + x217  = 1
 c11: x11 + x138 + x149 + x188 + x206 + x222 + x223 + x230 + x233  = 1
 c12: x12 + x139 + x140 + x145 + x148 + x150  = 1
 c13: x13 + x135 + x137 + x163 + x181 + x225  = 1
 c14: x14 + x130 + x132 + x177 + x198 + x210  = 1
 c15: x15 + x124 + x125 + x134 + x142 + x146 + x157 + x203  = 1
 c16: x16 + x120 + x121 + x122 + x152 + x165 + x170 + x175 + x193 + x195 + x219
      + x226 + x234  = 1
 c17: x17 + x115 + x116 + x117 + x118 + x133 + x141 + x166 + x172 + x186 + x201
      + x228 + x229  = 1
 c18: x18 + x111 + x112 + x113 + x114 + x128 + x129 + x147 + x153 + x179 + x185
      + x232 + x238 + x239  = 1
 c19: x19 + x109 + x110 + x176 + x179 + x231 + x240  = 1
 c20: x20 + x106 + x109 + x136 + x201 + x227  = 1
 c21: x21 + x102 + x106 + x110 + x182 + x212  = 1
 c22: x22 + x94 + x102 + x105 + x108 + x119 + x131 + x157 + x204 + x205  = 1
 c23: x23 + x93 + x94 + x100 + x101 + x104 + x127 + x132 + x180 + x199 + x200
       = 1
 c24: x24 + x90 + x91 + x93 + x96 + x98 + x108 + x123 + x141 + x162 + x165
      + x176 + x182 + x213 + x229 + x238  = 1
 c25: x25 + x89 + x91 + x95 + x97 + x104 + x135 + x186 + x240  = 1
 c26: x26 + x87 + x89 + x118 + x126 + x136 + x143 + x192 + x195 + x213 + x231
      + x232 + x239  = 1
 c27: x27 + 4.44089209850063e-16 x83 + x86 + x87 + x97 + x129 + x144 + x163
      + x167 + x180 + x185 + x199 + x202 + x210 + x219  = 1
 c28: x28 + x83 + x84 + x85 + x86 + x107 + x119 + x126 + x128 + x143 + x166
      + x167 + x172 + x187 + x202 + x203 + x204 + x205 + x212 + x226 + x227
       = 1
 c29: x29 + x75 + x79 + x83 + x84 + x87 + x103 + x117 + x130 + x153 + x187
      + x188  = 1
 c30: x30 + x69 + x77 + x78 + x79 + x80 + x81 + x82 + x88 + x99 + x107 + x121
      + x151 + x202 + x228  = 1
 c31: x31 + x72 + x73 + x74 + x75 + x76 + x86 + x92 + x96 + x105 + x111 + x120
      + x127 + x142 + x147 + x154 + x155  = 1
 c32: x32 + x64 + x70 + x71 + x72 + x73 + x74 + x78 + x80 + x85 + x90 + x95
      + x99 + x103 + x112 + x123 + x124 + x133 + x144 + x150 + x162 + x175
      + x187 + x192 + x198 + x199 + x205 + x213  = 1
 c33: x33 + x64 + x68 + x70 + x71 + x75 + x88 + x89 + x98 + x99 + x114 + x123
      + x131 + x143 + x145 + x149 + x162 + x177 + x181 + x192 + x193 + x198
      + x200 + x212  = 1
 c34: x34 + x65 + x68 + x69 + x70 + x76 + x77 + x81 + x84 + x88 + x90 + x95
      + x101 + x105 + x107 + x122 + x124 + x152 + x168 + x200 + x204  = 1
 c35: x35 + x65 + x66 + x67 + x68 + x69 + x71 + x73 + x82 + x92 + x96 + x99
      + x103 + x113 + x116 + x125 + x131 + x133 + x146 + x148 + x156 + x158
      + x170 + x184  = 1
 c36: x36 + x60 + x62 + x64 + x65 + x66 + x67 + x74 + x76 + x81 + x82 + x85
      + x97 + x100 + x108 + x114 + x120 + x144 + x146 + x147 + x159 + x174
      + x200 + x206 + x207  = 1
 c37: x37 + x55 + x56 + x57 + x58 + x59 + x60 + x61 + x62 + x63 + x64 + x73
      + x76 + x78 + x82 + x93 + x101 + x113 + x115 + x121 + x139 + x152 + x153
      + x167 + x169 + x177 + x182 + x185 + x192 + x214 + x225 + x234  = 1
 c38: x38 + x53 + x54 + x55 + x56 + x57 + x58 + x59 + x60 + x61 + x62 + x63
      + x66 + x67 + x68 + x71 + x72 + x74 + x77 + x81 + x82 + x98 + x101 + x112
      + x114 + x116 + x119 + x127 + x134 + x138 + x172 + x193 + x196 + x230
      + x233  = 1
 c39: x39 + x51 + x52 + x53 + x54 + x57 + x58 + x59 + x61 + x62 + x65 + x66
      + x69 + x72 + x77 + x80 + x84 + x91 + x99 + x100 + x103 + x115 + x122
      + x126 + x127 + x131 + x137 + x138 + x160 + x174 + x175 + x180 + x181
      + x186 + x190 + x197  = 1
 c40: x40 + x51 + x52 + x53 + x54 + x55 + x58 + x60 + x61 + x63 + x65 + x67
      + x68 + x72 + x76 + x78 + x80 + x82 + x88 + x92 + x98 + x100 + x104
      + x107 + x128 + x130 + x139 + x144 + x146 + x162 + x164 + x173 + x193
      + x194 + x206 + x211 + x215 + x216 + x217 + x218 + x219 + x220 + x221
      + x222 + x223 + x224 + x225 + x226 + x227 + x228 + x229 + x230 + x231
      + x232 + x233 + x234 + x235 + x236 + x237 + x238 + x239 + x240 + x241
       = 1
 c41: x41 + x51 + x52 + x53 + x54 + x55 + x56 + x59 + x61 + x63 + x64 + x70
      + x75 + x77 + x80 + x83 + x90 + x92 + x98 + x103 + x105 + x111 + x112
      + x117 + x125 + x126 + x134 + x143 + x144 + x150 + x167 + x170 + x180
      + x223 + x233 + x234 + x235 + x236  = 1
 c42: x42 + x51 + x52 + x53 + x54 + x55 + x56 + x57 + x60 + x62 + x64 + x68
      + x77 + x78 + x83 + x85 + x92 + x96 + x97 + x104 + x115 + x123 + x131
      + x134 + x137 + x140 + x144 + x147 + x152 + x161 + x170 + x171 + x183
      + x208 + x214 + x215 + x217 + x222  = 1
 c43: x43 + x51 + x52 + x53 + x54 + x55 + x56 + x57 + x58 + x61 + x63 + x65
      + x67 + x69 + x74 + x78 + x79 + x89 + x92 + x95 + x98 + x103 + x111
      + x115 + x119 + x122 + x129 + x137 + x140 + x142 + x148 + x149 + x159
      + x217 + x220 + x224 + x227 + x228 + x230 + x234 + x241  = 1
 c44: x44 + x51 + x52 + x53 + x54 + x55 + x56 + x57 + x58 + x59 + x62 + x63
      + x66 + x67 + x69 + x70 + x72 + x76 + x85 + x91 + x94 + x101 + x113
      + x117 + x129 + x136 + x138 + x162 + x166 + x171 + x176 + x178 + x187
      + x189 + x192 + x195 + x206  = 1
 c45: x45 + x51 + x52 + x53 + x54 + x55 + x56 + x57 + x58 + x59 + x60 + x63
      + x65 + x66 + x70 + x71 + x73 + x75 + x77 + x79 + x85 + x92 + x95 + x100
      + x107 + x113 + x116 + x123 + x125 + x127 + x133 + x134 + x139 + x141
      + x160 + x173 + x189 + x209  = 1
 c46: x46 + x51 + x52 + x53 + x54 + x55 + x56 + x57 + x58 + x59 + x60 + x61
      + x64 + x66 + x72 + x79 + x81 + x83 + x88 + x91 + x95 + x96 + x100 + x102
      + x118 + x125 + x137 + x140 + x145 + x158 + x167 + x187 + x190 + x191
      + x200 + x203 + x210 + x215 + x216  = 1
 c47: x47 + x51 + x52 + x53 + x54 + x55 + x56 + x57 + x58 + x59 + x60 + x61
      + x62 + x65 + x67 + x70 + x71 + x73 + x75 + x78 + x81 + x83 + x90 + x100
      + x101 + x102 + x108 + x116 + x126 + x128 + x142 + x148 + x161 + x175
      + x177 + x178 + x180 + x181 + x183 + x191 + x213 + x218 + x222 + x223
      + x225 + x236 + x237 + x239 + x240 + x241  = 1
 c48: x48 + x51 + x52 + x53 + x56 + x57 + x58 + x59 + x60 + x61 + x62 + x63
      + x66 + x67 + x69 + x71 + x74 + x80 + x84 + x88 + x90 + x92 + x94 + x106
      + x111 + x118 + x145 + x164 + x170 + x175 + x176 + x199 + x204 + x211
      + x220 + x221 + x222 + x223 + x225 + x231 + x232 + x235 + x237  = 1
 c49: x49 + x51 + x52 + x54 + x56 + x58 + x59 + x60 + x61 + x62 + x63 + x66
      + x67 + x68 + x70 + x73 + x74 + x76 + x79 + x80 + x81 + x86 + x94 + x110
      + x112 + x136 + x140 + x153 + x156 + x165  = 1
 c50: x50 + x51 + x55 + x57 + x59 + x60 + x61 + x62 + x63 + x65 + x67 + x68
      + x72 + x74 + x79 + x80 + x83 + x85 + x88 + x92 + x93 + x97 + x105 + x115
      + x116 + x120 + x123 + x124 + x154 + x156 + x161 + x163 + x164 + x166
      + x169 + x179 + x194 + x207 + x237 + x238  = 1
Bounds
      x179 = 0
      x183 = 0
 0 <= x190 <= 1
      x211 = 0
      x218 = 0
End
